10
0, 659, 483, 519, 583, 225, 516, 753, 606, 602
659, 0, 1142, 849, 693, 837, 553, 97, 861, 200
483, 1142, 0, 676, 908, 369, 873, 1237, 828, 1079
519, 849, 676, 0, 1083, 690, 328, 941, 1125, 915
583, 693, 908, 1083, 0, 545, 962, 736, 189, 500
225, 837, 369, 690, 545, 0, 738, 925, 496, 738
516, 553, 873, 328, 962, 738, 0, 637, 1056, 662
753, 97, 1237, 941, 736, 925, 637, 0, 912, 236
606, 861, 828, 1125, 189, 496, 1056, 912, 0, 676
602, 200, 1079, 915, 500, 738, 662, 236, 676, 0
